NAME: line_30_7
TYPE: TSP
COMMENT: line_30_7
DIMENSION: 30
EDGE_WEIGHT_TYPE: EUC_2D
NODE_COORD_SECTION
1 0.0 39.0
2 0.0 234.0
3 0.0 26.0
4 0.0 64.0
5 0.0 291.0
6 0.0 16.0
7 0.0 12.0
8 0.0 232.0
9 0.0 21.0
10 0.0 30.0
11 0.0 129.0
12 0.0 152.0
13 0.0 202.0
14 0.0 185.0
15 0.0 279.0
16 0.0 157.0
17 0.0 76.0
18 0.0 109.0
19 0.0 174.0
20 0.0 96.0
21 0.0 216.0
22 0.0 190.0
23 0.0 121.0
24 0.0 156.0
25 0.0 289.0
26 0.0 83.0
27 0.0 21.0
28 0.0 16.0
29 0.0 187.0
30 0.0 173.0
